p tw 33 35
1 2
2 13
3 4
4 5
5 6
6 7
7 8
8 9
9 10
10 11
11 12
12 14
12 15
13 24
14 26
15 16
16 17
17 18
18 19
19 20
19 22
20 21
21 26
22 23
23 25
24 28
25 26
26 27
28 29
29 30
29 31
30 26
31 32
32 33
33 3
